; 
(set-info :status unknown)
(declare-fun standard_metadata.ingress_port () (_ BitVec 9))
(declare-fun standard_metadata.egress_spec () (_ BitVec 9))
(declare-fun h1.f1 () (_ BitVec 8))
(assert
 (let (($x106 (= standard_metadata.ingress_port (_ bv1 9))))
 (or (or false (= standard_metadata.ingress_port (_ bv0 9))) $x106)))
(assert
 (let (($x108 (= standard_metadata.egress_spec (_ bv1 9))))
 (let (($x92 (= standard_metadata.egress_spec (_ bv511 9))))
 (or $x92 (or (or false (= standard_metadata.egress_spec (_ bv0 9))) $x108)))))
(assert
 (let ((?x37 (concat (_ bv0 7) (_ bv0 1))))
 (let (($x38 (= h1.f1 ?x37)))
 (let (($x44 (ite $x38 false (and true (not $x38)))))
 (let (($x92 (= standard_metadata.egress_spec (_ bv511 9))))
 (let (($x150 (not $x92)))
 (and (and $x150 $x44) (= (- 1) (- 1)))))))))
(check-sat)

; 
(set-info :status unknown)
(declare-fun standard_metadata.ingress_port () (_ BitVec 9))
(declare-fun standard_metadata.egress_spec () (_ BitVec 9))
(declare-fun h1.f2 () (_ BitVec 8))
(assert
 (let (($x106 (= standard_metadata.ingress_port (_ bv1 9))))
 (or (or false (= standard_metadata.ingress_port (_ bv0 9))) $x106)))
(assert
 (let (($x108 (= standard_metadata.egress_spec (_ bv1 9))))
 (let (($x92 (= standard_metadata.egress_spec (_ bv511 9))))
 (or $x92 (or (or false (= standard_metadata.egress_spec (_ bv0 9))) $x108)))))
(assert
 (let ((?x37 (concat (_ bv0 7) (_ bv0 1))))
 (let (($x45 (= h1.f2 ?x37)))
 (let (($x50 (ite $x45 false (and true (not $x45)))))
 (let (($x92 (= standard_metadata.egress_spec (_ bv511 9))))
 (let (($x150 (not $x92)))
 (and (and $x150 $x50) (= (- 1) (- 1)))))))))
(check-sat)

; 
(set-info :status unknown)
(declare-fun standard_metadata.ingress_port () (_ BitVec 9))
(declare-fun standard_metadata.egress_spec () (_ BitVec 9))
(declare-fun h1.f3 () (_ BitVec 8))
(assert
 (let (($x106 (= standard_metadata.ingress_port (_ bv1 9))))
 (or (or false (= standard_metadata.ingress_port (_ bv0 9))) $x106)))
(assert
 (let (($x108 (= standard_metadata.egress_spec (_ bv1 9))))
 (let (($x92 (= standard_metadata.egress_spec (_ bv511 9))))
 (or $x92 (or (or false (= standard_metadata.egress_spec (_ bv0 9))) $x108)))))
(assert
 (let ((?x37 (concat (_ bv0 7) (_ bv0 1))))
 (let (($x51 (= h1.f3 ?x37)))
 (let (($x56 (ite $x51 false (and true (not $x51)))))
 (let (($x92 (= standard_metadata.egress_spec (_ bv511 9))))
 (let (($x150 (not $x92)))
 (and (and $x150 $x56) (= (- 1) (- 1)))))))))
(check-sat)

; 
(set-info :status unknown)
(declare-fun standard_metadata.ingress_port () (_ BitVec 9))
(declare-fun standard_metadata.egress_spec () (_ BitVec 9))
(declare-fun h1.f4 () (_ BitVec 8))
(assert
 (let (($x106 (= standard_metadata.ingress_port (_ bv1 9))))
 (or (or false (= standard_metadata.ingress_port (_ bv0 9))) $x106)))
(assert
 (let (($x108 (= standard_metadata.egress_spec (_ bv1 9))))
 (let (($x92 (= standard_metadata.egress_spec (_ bv511 9))))
 (or $x92 (or (or false (= standard_metadata.egress_spec (_ bv0 9))) $x108)))))
(assert
 (let ((?x37 (concat (_ bv0 7) (_ bv0 1))))
 (let (($x57 (= h1.f4 ?x37)))
 (let (($x62 (ite $x57 false (and true (not $x57)))))
 (let (($x92 (= standard_metadata.egress_spec (_ bv511 9))))
 (let (($x150 (not $x92)))
 (and (and $x150 $x62) (= (- 1) (- 1)))))))))
(check-sat)

; 
(set-info :status unknown)
(declare-fun standard_metadata.ingress_port () (_ BitVec 9))
(declare-fun standard_metadata.egress_spec () (_ BitVec 9))
(declare-fun h1.f5 () (_ BitVec 8))
(assert
 (let (($x106 (= standard_metadata.ingress_port (_ bv1 9))))
 (or (or false (= standard_metadata.ingress_port (_ bv0 9))) $x106)))
(assert
 (let (($x108 (= standard_metadata.egress_spec (_ bv1 9))))
 (let (($x92 (= standard_metadata.egress_spec (_ bv511 9))))
 (or $x92 (or (or false (= standard_metadata.egress_spec (_ bv0 9))) $x108)))))
(assert
 (let ((?x37 (concat (_ bv0 7) (_ bv0 1))))
 (let (($x63 (= h1.f5 ?x37)))
 (let (($x68 (ite $x63 false (and true (not $x63)))))
 (let (($x92 (= standard_metadata.egress_spec (_ bv511 9))))
 (let (($x150 (not $x92)))
 (and (and $x150 $x68) (= (- 1) (- 1)))))))))
(check-sat)

; 
(set-info :status unknown)
(declare-fun standard_metadata.ingress_port () (_ BitVec 9))
(declare-fun standard_metadata.egress_spec () (_ BitVec 9))
(declare-fun h1.f6 () (_ BitVec 8))
(assert
 (let (($x106 (= standard_metadata.ingress_port (_ bv1 9))))
 (or (or false (= standard_metadata.ingress_port (_ bv0 9))) $x106)))
(assert
 (let (($x108 (= standard_metadata.egress_spec (_ bv1 9))))
 (let (($x92 (= standard_metadata.egress_spec (_ bv511 9))))
 (or $x92 (or (or false (= standard_metadata.egress_spec (_ bv0 9))) $x108)))))
(assert
 (let ((?x37 (concat (_ bv0 7) (_ bv0 1))))
 (let (($x69 (= h1.f6 ?x37)))
 (let (($x74 (ite $x69 false (and true (not $x69)))))
 (let (($x92 (= standard_metadata.egress_spec (_ bv511 9))))
 (let (($x150 (not $x92)))
 (and (and $x150 $x74) (= (- 1) (- 1)))))))))
(check-sat)

; 
(set-info :status unknown)
(declare-fun standard_metadata.ingress_port () (_ BitVec 9))
(declare-fun standard_metadata.egress_spec () (_ BitVec 9))
(declare-fun h1.f7 () (_ BitVec 8))
(assert
 (let (($x106 (= standard_metadata.ingress_port (_ bv1 9))))
 (or (or false (= standard_metadata.ingress_port (_ bv0 9))) $x106)))
(assert
 (let (($x108 (= standard_metadata.egress_spec (_ bv1 9))))
 (let (($x92 (= standard_metadata.egress_spec (_ bv511 9))))
 (or $x92 (or (or false (= standard_metadata.egress_spec (_ bv0 9))) $x108)))))
(assert
 (let ((?x37 (concat (_ bv0 7) (_ bv0 1))))
 (let (($x75 (= h1.f7 ?x37)))
 (let (($x80 (ite $x75 false (and true (not $x75)))))
 (let (($x92 (= standard_metadata.egress_spec (_ bv511 9))))
 (let (($x150 (not $x92)))
 (and (and $x150 $x80) (= (- 1) (- 1)))))))))
(check-sat)

; 
(set-info :status unknown)
(declare-fun standard_metadata.ingress_port () (_ BitVec 9))
(declare-fun standard_metadata.egress_spec () (_ BitVec 9))
(declare-fun h1.f8 () (_ BitVec 8))
(assert
 (let (($x106 (= standard_metadata.ingress_port (_ bv1 9))))
 (or (or false (= standard_metadata.ingress_port (_ bv0 9))) $x106)))
(assert
 (let (($x108 (= standard_metadata.egress_spec (_ bv1 9))))
 (let (($x92 (= standard_metadata.egress_spec (_ bv511 9))))
 (or $x92 (or (or false (= standard_metadata.egress_spec (_ bv0 9))) $x108)))))
(assert
 (let ((?x37 (concat (_ bv0 7) (_ bv0 1))))
 (let (($x81 (= h1.f8 ?x37)))
 (let (($x86 (ite $x81 false (and true (not $x81)))))
 (let (($x92 (= standard_metadata.egress_spec (_ bv511 9))))
 (let (($x150 (not $x92)))
 (and (and $x150 $x86) (= (- 1) (- 1)))))))))
(check-sat)

; 
(set-info :status unknown)
(declare-fun standard_metadata.ingress_port () (_ BitVec 9))
(declare-fun standard_metadata.egress_spec () (_ BitVec 9))
(declare-fun h1.f1 () (_ BitVec 8))
(assert
 (let (($x106 (= standard_metadata.ingress_port (_ bv1 9))))
 (or (or false (= standard_metadata.ingress_port (_ bv0 9))) $x106)))
(assert
 (let (($x108 (= standard_metadata.egress_spec (_ bv1 9))))
 (let (($x92 (= standard_metadata.egress_spec (_ bv511 9))))
 (or $x92 (or (or false (= standard_metadata.egress_spec (_ bv0 9))) $x108)))))
(assert
 (let ((?x37 (concat (_ bv0 7) (_ bv0 1))))
 (let (($x38 (= h1.f1 ?x37)))
 (let (($x43 (ite $x38 (and true $x38) false)))
 (let (($x92 (= standard_metadata.egress_spec (_ bv511 9))))
 (let (($x150 (not $x92)))
 (and (and $x150 $x43) (= (- 1) (- 1)))))))))
(check-sat)

; 
(set-info :status unknown)
(declare-fun standard_metadata.ingress_port () (_ BitVec 9))
(declare-fun standard_metadata.egress_spec () (_ BitVec 9))
(declare-fun h1.f2 () (_ BitVec 8))
(assert
 (let (($x106 (= standard_metadata.ingress_port (_ bv1 9))))
 (or (or false (= standard_metadata.ingress_port (_ bv0 9))) $x106)))
(assert
 (let (($x108 (= standard_metadata.egress_spec (_ bv1 9))))
 (let (($x92 (= standard_metadata.egress_spec (_ bv511 9))))
 (or $x92 (or (or false (= standard_metadata.egress_spec (_ bv0 9))) $x108)))))
(assert
 (let ((?x37 (concat (_ bv0 7) (_ bv0 1))))
 (let (($x45 (= h1.f2 ?x37)))
 (let (($x49 (ite $x45 (and true $x45) false)))
 (let (($x92 (= standard_metadata.egress_spec (_ bv511 9))))
 (let (($x150 (not $x92)))
 (and (and $x150 $x49) (= (- 1) (- 1)))))))))
(check-sat)

; 
(set-info :status unknown)
(declare-fun standard_metadata.ingress_port () (_ BitVec 9))
(declare-fun standard_metadata.egress_spec () (_ BitVec 9))
(declare-fun h1.f3 () (_ BitVec 8))
(assert
 (let (($x106 (= standard_metadata.ingress_port (_ bv1 9))))
 (or (or false (= standard_metadata.ingress_port (_ bv0 9))) $x106)))
(assert
 (let (($x108 (= standard_metadata.egress_spec (_ bv1 9))))
 (let (($x92 (= standard_metadata.egress_spec (_ bv511 9))))
 (or $x92 (or (or false (= standard_metadata.egress_spec (_ bv0 9))) $x108)))))
(assert
 (let ((?x37 (concat (_ bv0 7) (_ bv0 1))))
 (let (($x51 (= h1.f3 ?x37)))
 (let (($x55 (ite $x51 (and true $x51) false)))
 (let (($x92 (= standard_metadata.egress_spec (_ bv511 9))))
 (let (($x150 (not $x92)))
 (and (and $x150 $x55) (= (- 1) (- 1)))))))))
(check-sat)

; 
(set-info :status unknown)
(declare-fun standard_metadata.ingress_port () (_ BitVec 9))
(declare-fun standard_metadata.egress_spec () (_ BitVec 9))
(declare-fun h1.f4 () (_ BitVec 8))
(assert
 (let (($x106 (= standard_metadata.ingress_port (_ bv1 9))))
 (or (or false (= standard_metadata.ingress_port (_ bv0 9))) $x106)))
(assert
 (let (($x108 (= standard_metadata.egress_spec (_ bv1 9))))
 (let (($x92 (= standard_metadata.egress_spec (_ bv511 9))))
 (or $x92 (or (or false (= standard_metadata.egress_spec (_ bv0 9))) $x108)))))
(assert
 (let ((?x37 (concat (_ bv0 7) (_ bv0 1))))
 (let (($x57 (= h1.f4 ?x37)))
 (let (($x61 (ite $x57 (and true $x57) false)))
 (let (($x92 (= standard_metadata.egress_spec (_ bv511 9))))
 (let (($x150 (not $x92)))
 (and (and $x150 $x61) (= (- 1) (- 1)))))))))
(check-sat)

; 
(set-info :status unknown)
(declare-fun standard_metadata.ingress_port () (_ BitVec 9))
(declare-fun standard_metadata.egress_spec () (_ BitVec 9))
(declare-fun h1.f5 () (_ BitVec 8))
(assert
 (let (($x106 (= standard_metadata.ingress_port (_ bv1 9))))
 (or (or false (= standard_metadata.ingress_port (_ bv0 9))) $x106)))
(assert
 (let (($x108 (= standard_metadata.egress_spec (_ bv1 9))))
 (let (($x92 (= standard_metadata.egress_spec (_ bv511 9))))
 (or $x92 (or (or false (= standard_metadata.egress_spec (_ bv0 9))) $x108)))))
(assert
 (let ((?x37 (concat (_ bv0 7) (_ bv0 1))))
 (let (($x63 (= h1.f5 ?x37)))
 (let (($x67 (ite $x63 (and true $x63) false)))
 (let (($x92 (= standard_metadata.egress_spec (_ bv511 9))))
 (let (($x150 (not $x92)))
 (and (and $x150 $x67) (= (- 1) (- 1)))))))))
(check-sat)

; 
(set-info :status unknown)
(declare-fun standard_metadata.ingress_port () (_ BitVec 9))
(declare-fun standard_metadata.egress_spec () (_ BitVec 9))
(declare-fun h1.f6 () (_ BitVec 8))
(assert
 (let (($x106 (= standard_metadata.ingress_port (_ bv1 9))))
 (or (or false (= standard_metadata.ingress_port (_ bv0 9))) $x106)))
(assert
 (let (($x108 (= standard_metadata.egress_spec (_ bv1 9))))
 (let (($x92 (= standard_metadata.egress_spec (_ bv511 9))))
 (or $x92 (or (or false (= standard_metadata.egress_spec (_ bv0 9))) $x108)))))
(assert
 (let ((?x37 (concat (_ bv0 7) (_ bv0 1))))
 (let (($x69 (= h1.f6 ?x37)))
 (let (($x73 (ite $x69 (and true $x69) false)))
 (let (($x92 (= standard_metadata.egress_spec (_ bv511 9))))
 (let (($x150 (not $x92)))
 (and (and $x150 $x73) (= (- 1) (- 1)))))))))
(check-sat)

; 
(set-info :status unknown)
(declare-fun standard_metadata.ingress_port () (_ BitVec 9))
(declare-fun standard_metadata.egress_spec () (_ BitVec 9))
(declare-fun h1.f7 () (_ BitVec 8))
(assert
 (let (($x106 (= standard_metadata.ingress_port (_ bv1 9))))
 (or (or false (= standard_metadata.ingress_port (_ bv0 9))) $x106)))
(assert
 (let (($x108 (= standard_metadata.egress_spec (_ bv1 9))))
 (let (($x92 (= standard_metadata.egress_spec (_ bv511 9))))
 (or $x92 (or (or false (= standard_metadata.egress_spec (_ bv0 9))) $x108)))))
(assert
 (let ((?x37 (concat (_ bv0 7) (_ bv0 1))))
 (let (($x75 (= h1.f7 ?x37)))
 (let (($x79 (ite $x75 (and true $x75) false)))
 (let (($x92 (= standard_metadata.egress_spec (_ bv511 9))))
 (let (($x150 (not $x92)))
 (and (and $x150 $x79) (= (- 1) (- 1)))))))))
(check-sat)

; 
(set-info :status unknown)
(declare-fun standard_metadata.ingress_port () (_ BitVec 9))
(declare-fun standard_metadata.egress_spec () (_ BitVec 9))
(declare-fun h1.f8 () (_ BitVec 8))
(assert
 (let (($x106 (= standard_metadata.ingress_port (_ bv1 9))))
 (or (or false (= standard_metadata.ingress_port (_ bv0 9))) $x106)))
(assert
 (let (($x108 (= standard_metadata.egress_spec (_ bv1 9))))
 (let (($x92 (= standard_metadata.egress_spec (_ bv511 9))))
 (or $x92 (or (or false (= standard_metadata.egress_spec (_ bv0 9))) $x108)))))
(assert
 (let ((?x37 (concat (_ bv0 7) (_ bv0 1))))
 (let (($x81 (= h1.f8 ?x37)))
 (let (($x85 (ite $x81 (and true $x81) false)))
 (let (($x92 (= standard_metadata.egress_spec (_ bv511 9))))
 (let (($x150 (not $x92)))
 (and (and $x150 $x85) (= (- 1) (- 1)))))))))
(check-sat)

; 
(set-info :status unknown)
(declare-fun standard_metadata.ingress_port () (_ BitVec 9))
(declare-fun standard_metadata.egress_spec () (_ BitVec 9))
(declare-fun h1.fr () (_ BitVec 8))
(assert
 (let (($x106 (= standard_metadata.ingress_port (_ bv1 9))))
 (or (or false (= standard_metadata.ingress_port (_ bv0 9))) $x106)))
(assert
 (let (($x108 (= standard_metadata.egress_spec (_ bv1 9))))
 (let (($x92 (= standard_metadata.egress_spec (_ bv511 9))))
 (or $x92 (or (or false (= standard_metadata.egress_spec (_ bv0 9))) $x108)))))
(assert
 (let (($x90 (and true (and true (= h1.fr (_ bv255 8))))))
 (let ((?x94 (ite $x90 0 (- 1))))
 (and (and (not (= standard_metadata.egress_spec (_ bv511 9))) true) (= ?x94 (- 1))))))
(check-sat)

; 
(set-info :status unknown)
(declare-fun standard_metadata.ingress_port () (_ BitVec 9))
(declare-fun standard_metadata.egress_spec () (_ BitVec 9))
(declare-fun h1.fr () (_ BitVec 8))
(assert
 (let (($x106 (= standard_metadata.ingress_port (_ bv1 9))))
 (or (or false (= standard_metadata.ingress_port (_ bv0 9))) $x106)))
(assert
 (let (($x108 (= standard_metadata.egress_spec (_ bv1 9))))
 (let (($x92 (= standard_metadata.egress_spec (_ bv511 9))))
 (or $x92 (or (or false (= standard_metadata.egress_spec (_ bv0 9))) $x108)))))
(assert
 (let (($x90 (and true (and true (= h1.fr (_ bv255 8))))))
 (let ((?x94 (ite $x90 0 (- 1))))
 (and (and (not (= standard_metadata.egress_spec (_ bv511 9))) true) (= ?x94 0)))))
(check-sat)
